c Circuit-CNF generated by TG-PRO v1.0 (c) Huan Chen and Joao Marques-Silva
p cnf 192 445
1 2 0
-1 -2 0
3 4 0
-3 -4 0
5 6 0
-5 -6 0
7 8 0
-7 -8 0
9 10 0
-9 -10 0
11 12 0
-11 -12 0
13 14 0
-13 -14 0
15 16 0
-15 -16 0
17 18 0
17 19 0
-17 -18 -19 0
-20 -21 0
-20 -22 0
20 21 22 0
23 24 0
-23 -24 0
-25 -26 0
-25 -27 0
25 26 27 0
-28 -29 0
-28 -27 0
28 29 27 0
-30 -31 0
-30 -27 0
30 31 27 0
32 33 0
32 34 0
-32 -33 -34 0
35 33 0
35 36 0
-35 -33 -36 0
37 33 0
37 38 0
-37 -33 -38 0
39 33 0
39 40 0
-39 -33 -40 0
-41 -42 0
-41 -43 0
41 42 43 0
-44 -45 0
-44 -46 0
44 45 46 0
-47 -48 0
-47 -49 0
47 48 49 0
-50 -51 0
-50 -52 0
50 51 52 0
53 54 0
-53 -54 0
55 56 0
-55 -56 0
57 58 0
-57 -58 0
59 60 0
-59 -60 0
21 18 0
-21 -18 0
61 62 0
-61 -62 0
63 64 0
-63 -64 0
65 64 0
-65 -64 0
66 62 0
-66 -62 0
33 27 0
-33 -27 0
67 63 0
-67 -63 0
-68 -69 0
-68 -18 0
68 69 18 0
70 68 0
-70 -68 0
24 71 0
24 18 0
-24 -71 -18 0
72 24 0
-72 -24 0
73 70 0
-73 -70 0
74 70 0
-74 -70 0
75 70 0
-75 -70 0
76 70 0
-76 -70 0
77 9 0
77 78 0
-77 -9 -78 0
79 77 0
-79 -77 0
80 9 0
80 81 0
-80 -9 -81 0
82 80 0
-82 -80 0
83 9 0
83 84 0
-83 -9 -84 0
85 83 0
-85 -83 0
86 9 0
86 87 0
-86 -9 -87 0
88 86 0
-88 -86 0
22 62 0
22 67 0
-22 -62 -67 0
89 22 0
-89 -22 0
90 23 0
-90 -23 0
91 72 0
-91 -72 0
92 72 0
-92 -72 0
93 72 0
-93 -72 0
94 72 0
-94 -72 0
-95 -23 0
-95 -68 0
95 23 68 0
96 95 0
-96 -95 0
97 95 0
-97 -95 0
98 79 0
98 1 0
-98 -79 -1 0
99 98 0
-99 -98 0
100 96 0
-100 -96 0
101 96 0
-101 -96 0
102 96 0
-102 -96 0
103 96 0
-103 -96 0
104 64 0
104 90 0
-104 -64 -90 0
31 104 0
-31 -104 0
-54 -105 0
-54 -106 0
54 105 106 0
-56 -107 0
-56 -108 0
56 107 108 0
-58 -109 0
-58 -110 0
58 109 110 0
-60 -111 0
-60 -112 0
60 111 112 0
113 114 0
113 98 0
-113 -114 -98 0
115 113 0
-115 -113 0
-116 -117 0
-116 -118 0
116 117 118 0
119 116 0
-119 -116 0
-120 -121 0
-120 -122 0
120 121 122 0
123 120 0
-123 -120 0
-124 -125 0
-124 -126 0
124 125 126 0
127 124 0
-127 -124 0
-128 -129 0
-128 -130 0
128 129 130 0
131 128 0
-131 -128 0
-132 -133 0
-132 -134 0
132 133 134 0
135 132 0
-135 -132 0
-136 -137 0
-136 -138 0
136 137 138 0
139 136 0
-139 -136 0
-140 -141 0
-140 -142 0
140 141 142 0
143 140 0
-143 -140 0
-144 -145 0
-144 -146 0
144 145 146 0
147 144 0
-147 -144 0
-148 -149 0
-148 -150 0
148 149 150 0
40 148 0
-40 -148 0
-151 -152 0
-151 -153 0
151 152 153 0
154 151 0
-154 -151 0
-155 -156 0
-155 -157 0
155 156 157 0
158 155 0
-158 -155 0
-159 -160 0
-159 -161 0
159 160 161 0
38 159 0
-38 -159 0
-162 -163 0
-162 -164 0
162 163 164 0
34 162 0
-34 -162 0
-165 -166 0
-165 -167 0
165 166 167 0
36 165 0
-36 -165 0
-106 70 0
-106 87 0
106 -70 -87 0
-108 70 0
-108 84 0
108 -70 -84 0
-110 70 0
-110 81 0
110 -70 -81 0
-112 70 0
-112 78 0
112 -70 -78 0
-118 72 0
-118 15 0
118 -72 -15 0
-122 72 0
-122 13 0
122 -72 -13 0
-126 72 0
-126 11 0
126 -72 -11 0
-130 72 0
-130 9 0
130 -72 -9 0
-105 73 0
-105 168 0
105 -73 -168 0
-107 74 0
-107 169 0
107 -74 -169 0
-109 75 0
-109 170 0
109 -75 -170 0
-111 76 0
-111 171 0
111 -76 -171 0
-134 82 0
-134 3 0
134 -82 -3 0
-142 85 0
-142 5 0
142 -85 -5 0
-153 88 0
-153 7 0
153 -88 -7 0
-46 95 0
-46 15 0
46 -95 -15 0
-49 95 0
-49 13 0
49 -95 -13 0
-52 95 0
-52 11 0
52 -95 -11 0
-117 91 0
-117 172 0
117 -91 -172 0
-121 92 0
-121 173 0
121 -92 -173 0
-125 93 0
-125 174 0
125 -93 -174 0
-129 94 0
-129 175 0
129 -94 -175 0
-164 96 0
-164 7 0
164 -96 -7 0
-167 96 0
-167 5 0
167 -96 -5 0
-161 96 0
-161 3 0
161 -96 -3 0
-150 96 0
-150 1 0
150 -96 -1 0
-137 176 0
-137 3 0
137 -176 -3 0
177 -82 0
177 -3 0
-177 82 3 0
-133 99 0
-133 177 0
133 -99 -177 0
-43 95 0
-43 115 0
43 -95 -115 0
-42 97 0
-42 119 0
42 -97 -119 0
-45 97 0
-45 123 0
45 -97 -123 0
-48 97 0
-48 127 0
48 -97 -127 0
-51 97 0
-51 131 0
51 -97 -131 0
178 -179 0
178 -3 0
-178 179 3 0
-138 178 0
-138 132 0
138 -178 -132 0
-145 180 0
-145 5 0
145 -180 -5 0
181 -85 0
181 -5 0
-181 85 5 0
-141 135 0
-141 181 0
141 -135 -181 0
182 -183 0
182 -5 0
-182 183 5 0
-146 182 0
-146 140 0
146 -182 -140 0
-149 103 0
-149 139 0
149 -103 -139 0
-156 184 0
-156 7 0
156 -184 -7 0
185 -88 0
185 -7 0
-185 88 7 0
-152 143 0
-152 185 0
152 -143 -185 0
186 -187 0
186 -7 0
-186 187 7 0
-157 186 0
-157 151 0
157 -186 -151 0
-160 102 0
-160 147 0
160 -102 -147 0
-163 100 0
-163 154 0
163 -100 -154 0
-166 101 0
-166 158 0
166 -101 -158 0
114 -79 0
114 -1 0
-114 79 1 0
188 -18 0
188 -89 0
-188 18 89 0
-189 -23 0
-189 -65 0
189 23 65 0
190 -62 0
190 -189 0
-190 62 189 0
-19 -61 0
-19 -65 0
19 61 65 0
191 18 0
191 89 0
-191 -18 -89 0
192 62 0
192 189 0
-192 -62 -189 0
26 188 0
26 191 0
-26 -188 -191 0
29 190 0
29 192 0
-29 -190 -192 0
69 -64 0
69 -62 0
-69 64 62 0
-71 64 0
-71 66 0
71 -64 -66 0
-176 99 0
-176 82 0
176 -99 -82 0
179 -99 0
179 -82 0
-179 99 82 0
-180 135 0
-180 85 0
180 -135 -85 0
183 -135 0
183 -85 0
-183 135 85 0
-184 143 0
-184 88 0
184 -143 -88 0
187 -143 0
187 -88 0
-187 143 88 0
